Version identifier: 22.1.1.0 | 2022-11-28 | 9160aff4d
CPXPARAM_ClockType                               1
CPXPARAM_Read_DataCheck                          1
CPXPARAM_Threads                                 1
CPXPARAM_TimeLimit                               7200
CPXPARAM_MIP_Tolerances_AbsMIPGap                0
CPXPARAM_MIP_Tolerances_MIPGap                   0
CPXPARAM_MIP_Tolerances_Integrality              0
Tried aggregator 5 times.
MIP Presolve eliminated 17878 rows and 6310 columns.
MIP Presolve modified 22 coefficients.
Aggregator did 8374 substitutions.
Reduced MIP has 174599 rows, 74146 columns, and 571771 nonzeros.
Reduced MIP has 74146 binaries, 0 generals, 0 SOSs, and 0 indicators.
Presolve time = 1.75 sec. (961.23 ticks)
Found incumbent of value 128.000000 after 3.09 sec. (1575.47 ticks)
Probing fixed 462 vars, tightened 0 bounds.
Probing time = 1.83 sec. (651.83 ticks)
Tried aggregator 3 times.
Detecting symmetries...
MIP Presolve eliminated 4697 rows and 1529 columns.
MIP Presolve modified 253 coefficients.
Aggregator did 254 substitutions.
Reduced MIP has 169648 rows, 72363 columns, and 558717 nonzeros.
Reduced MIP has 72363 binaries, 0 generals, 0 SOSs, and 0 indicators.
Presolve time = 2.46 sec. (1230.03 ticks)
Probing fixed 33 vars, tightened 0 bounds.
Probing time = 0.57 sec. (183.11 ticks)
Clique table members: 352012.
MIP emphasis: balance optimality and feasibility.
MIP search method: dynamic search.
Parallel mode: none, using 1 thread.
Root relaxation solution time = 99.59 sec. (23443.60 ticks)

        Nodes                                         Cuts/
   Node  Left     Objective  IInf  Best Integer    Best Bound    ItCnt     Gap

*     0+    0                          128.0000    38070.0000              --- 
      0     0    33727.9231 31436      128.0000    33727.9231    66005     --- 
      0     0    33413.8000 30450      128.0000 Cliques: 5145    84527     --- 
      0     0    33015.8121 28473      128.0000 Cliques: 10000   199754     --- 
      0     0    32630.2993 28137      128.0000 Cliques: 10000   293884     --- 
*     0+    0                          344.0000    32630.2993              --- 
*     0+    0                          354.0000    32630.2993              --- 
*     0+    0                          558.0000    32630.2993              --- 
*     0+    0                         1242.0000    32630.2993              --- 
      0     0        cutoff           1242.0000    32630.2993   293884     --- 
      0     0    31911.7295 28477     1242.0000   Cuts: 10000   595966     --- 
      0     0    31467.8776 28667     1242.0000   Cuts: 10000   804234     --- 

Clique cuts applied:  32718
Implied bound cuts applied:  70
Zero-half cuts applied:  1140

Root node processing (before b&c):
  Real time             = 7200.17 sec. (1690538.40 ticks)
Sequential b&c:
  Real time             =    0.00 sec. (0.00 ticks)
                          ------------
Total (root+branch&cut) = 7200.17 sec. (1690538.40 ticks)
Solution is feasible.

---------------------
@@@ MIP_time_limit_feasible
>>> Benchmark mc2024_track1_145.cnf k 5 OPT 1242 TimeCost 7448.815931558609 TimeSolve 7225.411680221558 TimeRead 0.11271381378173828 TimeTrans 223.29153752326965
